Maximize
  NxS_e0 + NxS_e1 + NxS_e2 + NxS_e3 + NxS_e4 + NxS_e5 + NxS_e6 + NxS_e7 + NxS_e8
Subject to
  -S_BB_1 + S_e_0 = 0
  -S_BB_1 = 0
  -S_BB_2 + S_e_1 = 0
  -S_BB_2 + S_e_0 + S_e_4 = 0
  -S_BB_3 + S_e_2 + S_e_3 = 0
  -S_BB_3 + S_e_1 + S_e_2 = 0
  -S_BB_4 + S_e_4 + S_e_5 = 0
  -S_BB_4 + S_e_3 = 0
  -S_BB_5 + S_e_6 = 0
  -S_BB_5 + S_e_5 = 0
  -S_BB_6 + S_e_7 + S_e_8 = 0
  -S_BB_6 + S_e_6 + S_e_7 = 0
  -S_BB_7 = 0
  -S_BB_7 + S_e_8 = 0
  NxS_e0 - N <= 0
  -9900 S_e_0 + NxS_e0 <= 0
  -9900 S_e_0 + NxS_e0 - N >= -9900
  -9899 S_e_0 - N >= -9900
  NxS_e1 - N <= 0
  -9900 S_e_1 + NxS_e1 <= 0
  -9900 S_e_1 + NxS_e1 - N >= -9900
  -9800 S_e_1 - N >= -9900
  NxS_e2 - N <= 0
  -9900 S_e_2 + NxS_e2 <= 0
  -9900 S_e_2 + NxS_e2 - N >= -9900
  -N >= -9900
  NxS_e3 - N <= 0
  -9900 S_e_3 + NxS_e3 <= 0
  -9900 S_e_3 + NxS_e3 - N >= -9900
  -9800 S_e_3 - N >= -9900
  NxS_e4 - N <= 0
  -9900 S_e_4 + NxS_e4 <= 0
  -9900 S_e_4 + NxS_e4 - N >= -9900
  -9801 S_e_4 - N >= -9900
  NxS_e5 - N <= 0
  -9900 S_e_5 + NxS_e5 <= 0
  -9900 S_e_5 + NxS_e5 - N >= -9900
  -9899 S_e_5 - N >= -9900
  NxS_e6 - N <= 0
  -9900 S_e_6 + NxS_e6 <= 0
  -9900 S_e_6 + NxS_e6 - N >= -9900
  -9899 S_e_6 - N >= -9900
  NxS_e7 - N <= 0
  -9900 S_e_7 + NxS_e7 <= 0
  -9900 S_e_7 + NxS_e7 - N >= -9900
  -9801 S_e_7 - N >= -9900
  NxS_e8 - N <= 0
  -9900 S_e_8 + NxS_e8 <= 0
  -9900 S_e_8 + NxS_e8 - N >= -9900
  -9899 S_e_8 - N >= -9900
  S_e_2 + S_e_4 + S_e_7 = 1
Bounds
  0 <= NxS_e0 <= 1
  0 <= NxS_e1 <= 100
  0 <= NxS_e2 <= 9900
  0 <= NxS_e3 <= 100
  0 <= NxS_e4 <= 99
  0 <= NxS_e5 <= 1
  0 <= NxS_e6 <= 1
  0 <= NxS_e7 <= 99
  0 <= NxS_e8 <= 1
  0 <= N <= 9900
General
  N
Binary
  S_BB_1 S_BB_2 S_BB_3 S_BB_4 S_BB_5 S_BB_6 S_BB_7 S_e_0 S_e_1 S_e_2 S_e_3 S_e_4 S_e_5 S_e_6 S_e_7 S_e_8
End
